# 
# This is the geometry file that corresponds to the current relaxation step.
# If you do not want this file to be written, set the "write_restart_geometry" flag to .false.
#  aims_uuid : AAC8C961-D0E7-4F48-A9BA-DA839B3AA6F5                                
# 
lattice_vector      0.00017244      2.72924830      2.72942113
lattice_vector      2.72924887      0.00017302      2.72942151
lattice_vector      2.72890322      2.72890302     -0.00034546
atom_frac      -0.00000000      0.00000000      0.00000000 Si
atom_frac       0.25000000      0.25000000      0.25000000 Si
# 
# What follows is the current estimated Hessian matrix constructed by the BFGS algorithm.
# This is NOT the true Hessian matrix of the system.
# If you do not want this information here, switch it off using the "hessian_to_restart_geometry" keyword.
# 
trust_radius             0.2000000030
hessian_file
